62
1 0
2 0
3 0
4 0
5 8
6 8
7 8
8 2
9 8
10 8
11 2
12 16
13 15
14 24
15 31
16 31
17 32
18 11
19 32
20 10
21 15
22 35
23 39
24 39
25 2
26 42
27 16
28 16
29 21
30 22
31 39
32 21
33 48
34 5
35 22
36 31
37 46
38 32
39 24
40 54
41 16
42 54
43 62
44 21
45 56
46 46
47 64
48 56
49 35
50 16
51 24
52 47
53 63
54 24
55 46
56 68
57 48
58 50
59 62
60 65
61 75
62 79
